(set-logic ALL)
(declare-fun i1 () Int)
(declare-fun it89 () Int)
(declare-fun it90 () Int)
(declare-fun i3 () Int)
(declare-fun it91 () Int)
(declare-fun i4 () Int)
(declare-fun it92 () Int)
(declare-fun i5 () Int)
(declare-fun it93 () Int)
(declare-fun i6 () Int)
(declare-fun it94 () Int)
(declare-fun i7 () Int)
(declare-fun it95 () Int)
(declare-fun i8 () Int)
(declare-fun it132 () Int)
(declare-fun it19 () Int)
(declare-fun it136 () Int)
(declare-fun it137 () Int)
(declare-fun it138 () Int)
(declare-fun it139 () Int)
(declare-fun it35 () Int)
(declare-fun it140 () Int)
(declare-fun it141 () Int)
(declare-fun it142 () Int)
(declare-fun it147 () Int)
(declare-fun it148 () Int)
(declare-fun it36 () Int)
(declare-fun it149 () Int)
(declare-fun it144 () Int)
(declare-fun it150 () Int)
(declare-fun it151 () Int)
(declare-fun it152 () Int)
(declare-fun it145 () Int)
(declare-fun it153 () Int)
(assert (= (+ i1 (- 10)) 0))
(assert (= (+ it89 (- 2)) 0))
(assert (= (+ (* i3 (- 1)) it90) 0))
(assert (= (+ (* i4 (- 1)) it91) 0))
(assert (= (+ (* i5 (- 1)) it92) 0))
(assert (= (+ (* i6 (- 1)) it93) 0))
(assert (= (+ (* i7 (- 1)) it94) 0))
(assert (= (+ (* i8 (- 1)) it95) 0))
(assert (let ((a!1 (+ (* (+ 0 it90) (exp 3 (+ it132 (- 1))) (+ 0 (- 1)))
              (* (exp 3 (+ it132 (- 1))) (- (/ 1.0 2.0)))
              (+ 0 (* it19 2))
              (- (/ 1.0 2.0)))))
  (and (>= (+ (* it89 (- 1)) 2) 0)
       (>= a!1 (+ 0 0))
       (>= (+ (* it90 (- 1)) (* it19 2) (- 1)) 0)
       (>= (+ it90 (- 1)) 0)
       (>= (+ it89 (- 2)) 0)
       (>= (+ it132 (- 1)) 0))))
(assert (= (+ it136 (* it89 (- 1))) 0))
(assert (= (+ (+ 0 it137)
      (* (+ 0 it90) (exp 3 it132) (+ 0 (- 1)))
      (* (exp 3 it132) (- (/ 1.0 2.0)))
      (/ 1.0 2.0))
   (+ 0 0)))
(assert (let ((a!1 (+ (* (+ 0 it90) (exp 3 (+ it132 (- 1))) (+ 0 (- 1)))
              (+ 0 it138)
              (* (exp 3 (+ it132 (- 1))) (- (/ 1.0 2.0)))
              (/ 1.0 2.0))))
  (= a!1 (+ 0 0))))
(assert (= (+ (* it35 (- 1)) it139) 0))
(assert (= (+ it140 (* it93 (- 1))) 0))
(assert (= (+ it141 (* it94 (- 1))) 0))
(assert (= (+ it142 (* it19 (- 1))) 0))
(assert (and (<= (+ (* it137 (- 1)) 1) 0) (= (+ it136 (- 2)) 0)))
(assert (= (+ it147 (- 5)) 0))
(assert (= (+ (* it137 (- 1)) it148) 0))
(assert (= (+ it149 (* it36 (- 1))) 0))
(assert (= (+ it150 (* it144 (- 1))) 0))
(assert (= (+ (* it140 (- 1)) it151) 0))
(assert (= (+ it152 (* it141 (- 1))) 0))
(assert (= (+ it153 (* it145 (- 1))) 0))
(assert (and (= (+ (* it149 (- 1)) it148) 0)
     (<= (+ (* it153 2) (* it148 (- 1)) 1) 0)
     (= (+ it147 (- 5)) 0)))
(check-sat)
